numOfMachines = 4;
numOfRobots = 2;
numOfJobs = 6;
maxOperations = 4;
operationsCount = [4,3,4,3,3,4];
operation = [
[<0,0,0>,<1,11,0>,<3,19,0>,<2,16,1>,<4,13,0>],
[<0,0,0>,<2,21,0>,<3,16,0>,<4,14,0>],
[<0,0,0>,<3,8,0>,<2,10,1>,<1,14,0>,<4,9,0>],
[<0,0,0>,<2,13,0>,<3,20,0>,<4,10,1>],
[<0,0,0>,<1,9,0>,<3,16,1>,<4,18,0>],
[<0,0,0>,<2,19,0>,<1,21,0>,<3,11,0>,<4,15,1>]
];